100
128
44
6
49
10
64
7
54
4
1
59
33
44
7
63
30
42
51
24
24
10
30
39
23
8
41
16
57
15
10
12
29
14
51
45
41
21
6
14
14
48
19
4
30
6
62
14
31
34
10
16
59
34
54
40
2
53
10
12
51
2
42
13
48
42
19
27
2
31
39
35
40
24
52
20
20
60
14
3
45
45
28
18
20
7
13
57
19
13
37
7
1
3
2
16
55
20
38
44
46
32